
List of user-set options:

                                    Name   Value                used
                           linear_solver = ma57                  yes
                  ma57_automatic_scaling = yes                   yes
                                max_iter = 400                   yes
                             mu_strategy = adaptive              yes
                             output_file = Reusable-Launch-Vehicle-Entry-ProblemIPOPTinfo.txt  yes
                             print_level = 5                     yes
                      print_user_options = yes                   yes
                                     tol = 1e-007                yes
This is Ipopt version 3.11.0, running with linear solver ma57.

Number of nonzeros in equality constraint Jacobian...:   114243
Number of nonzeros in inequality constraint Jacobian.:     2253
Number of nonzeros in Lagrangian Hessian.............:    67580

Reallocating memory for MA57: lfact (1028889)
Total number of variables............................:    14655
                     variables with only lower bounds:        0
                variables with lower and upper bounds:    14655
                     variables with only upper bounds:        0
Total number of equality constraints.................:    11270
Total number of inequality constraints...............:     1128
        inequality constraints with only lower bounds:        0
   inequality constraints with lower and upper bounds:     1128
        inequality constraints with only upper bounds:        0

iter    objective    inf_pr   inf_du lg(mu)  ||d||  lg(rg) alpha_du alpha_pr  ls
   0 1.1991590e+002 9.02e-001 1.00e+002   0.0 0.00e+000    -  0.00e+000 0.00e+000   0
   1 1.2184878e+002 8.87e-001 1.63e+003  -0.9 9.01e+000    -  1.40e-001 1.65e-002f  1
Reallocating memory for MA57: lfact (1081147)
   2 1.2129981e+002 7.17e-001 1.15e+003  -1.8 3.31e-001    -  3.83e-001 1.91e-001h  1
   3 1.2592534e+002 3.40e-001 4.38e+002  -1.4 3.52e-001    -  3.22e-001 5.26e-001f  1
   4 1.3451272e+002 2.55e-001 1.01e+003  -0.8 1.67e+000    -  3.77e-001 2.50e-001f  1
   5 1.3515042e+002 9.00e-002 1.99e+003  -0.4 4.52e-002   4.0 1.00e+000 6.47e-001f  1
   6 1.3640806e+002 7.28e-004 9.72e+001  -1.3 2.18e-002   3.5 1.00e+000 9.92e-001h  1
   7 1.3804378e+002 4.49e-005 1.69e+002  -0.7 4.47e-002   3.0 1.00e+000 1.00e+000H  1
   8 1.3837463e+002 1.46e-005 1.62e+003  -1.2 2.81e-002   2.6 1.00e+000 9.18e-001H  1
   9 1.4115739e+002 1.54e-005 8.83e+001  -1.9 3.58e-002   2.1 9.26e-001 1.00e+000H  1
iter    objective    inf_pr   inf_du lg(mu)  ||d||  lg(rg) alpha_du alpha_pr  ls
  10 1.4269093e+002 1.56e-005 1.84e+003  -2.1 1.14e-001   1.6 1.00e+000 1.83e-001H  1
  11 1.4340422e+002 1.56e-005 4.96e+003  -1.9 2.35e-001   1.1 1.00e+000 4.03e-002h  5
  12 1.6793051e+002 4.55e-003 2.09e+003  -1.4 4.22e-001   0.7 1.00e+000 6.84e-001f  1
  13 1.6832914e+002 4.93e-005 9.90e+002  -1.5 1.11e-002   3.8 6.82e-001 1.00e+000h  1
  14 1.6846277e+002 2.61e-005 1.69e+003  -1.5 1.00e-002   3.3 1.00e+000 5.22e-001f  1
  15 1.6851999e+002 7.17e-004 5.90e+001  -1.5 9.39e-003   2.8 1.00e+000 1.00e+000f  1
  16 1.6710277e+002 1.05e-004 2.09e+003  -1.5 1.75e-002   2.4 2.70e-001 1.00e+000f  1
  17 1.6693979e+002 9.36e-005 1.81e+003  -1.5 1.27e-001   1.9 1.99e-001 1.09e-001f  1
  18 1.8273280e+002 3.89e-002 3.32e+003  -1.5 5.55e+000   1.4 1.77e-002 1.95e-001f  1
  19 1.8496352e+002 1.96e-002 3.64e+003  -1.5 2.37e-001   2.7 6.75e-002 4.98e-001h  1
iter    objective    inf_pr   inf_du lg(mu)  ||d||  lg(rg) alpha_du alpha_pr  ls
  20 1.8496400e+002 1.95e-002 8.09e+003  -1.5 9.85e-003   5.9 6.11e-001 5.63e-003h  1
  21 1.8504289e+002 9.85e-003 1.63e+005  -1.5 2.46e-002   5.4 3.50e-001 4.95e-001h  1
  22 1.8512644e+002 8.04e-003 1.33e+005  -1.5 5.78e-002   4.9 4.05e-003 1.84e-001h  1
  23 1.8512646e+002 7.82e-003 1.30e+005  -1.5 9.76e-004   9.0 1.00e+000 2.82e-002h  1
  24 1.8512650e+002 6.62e-003 3.99e+005  -1.5 9.47e-004   9.4 9.19e-001 1.64e-001h  1
  25 1.8512650e+002 6.56e-003 4.46e+005  -1.5 7.89e-004   9.8 1.71e-002 9.95e-003h  1
  26 1.8512656e+002 2.81e-003 1.36e+007  -1.5 7.79e-004  10.2 1.63e-001 1.00e+000f  1
  27 1.8512661e+002 2.06e-003 1.10e+007  -1.5 5.32e-004   9.8 3.41e-001 1.91e-001h  1
  28 1.8512708e+002 2.15e-003 2.73e+006  -1.5 5.56e-004   9.3 4.75e-001 7.51e-001h  1
  29 1.8512709e+002 2.15e-003 2.71e+006  -1.5 3.83e-004   8.8 4.56e-001 7.02e-003h  1
iter    objective    inf_pr   inf_du lg(mu)  ||d||  lg(rg) alpha_du alpha_pr  ls
  30 1.8513086e+002 2.15e-003 1.35e+006  -1.5 8.60e-004   8.3 3.91e-001 1.00e+000f  1
  31 1.8513086e+002 2.15e-003 1.85e+006  -1.5 6.36e-006  11.5 1.00e+000 1.00e+000h  1
  32 1.8513086e+002 2.14e-003 3.29e+006  -1.5 4.21e-005  11.0 1.00e+000 1.00e+000h  1
  33 1.8513086e+002 2.13e-003 4.51e+006  -1.5 1.75e-005  11.4 1.00e+000 1.00e+000h  1
  34 1.8513086e+002 2.13e-003 5.63e+006  -1.5 8.19e-006  11.8 1.00e+000 1.00e+000h  1
  35 1.8513086e+002 2.12e-003 6.41e+006  -1.5 2.79e-005  11.4 1.00e+000 1.00e+000h  1
  36 1.8513086e+002 2.11e-003 7.04e+006  -1.5 1.15e-005  11.8 1.00e+000 1.00e+000h  1
  37 1.8513085e+002 2.10e-003 7.21e+006  -1.5 3.54e-005  11.3 1.00e+000 1.00e+000h  1
  38 1.8513085e+002 2.09e-003 7.22e+006  -1.5 1.33e-005  11.7 1.00e+000 1.00e+000h  1
  39 1.8513085e+002 2.09e-003 7.15e+006  -1.5 4.93e-006  12.2 1.00e+000 1.00e+000h  1
iter    objective    inf_pr   inf_du lg(mu)  ||d||  lg(rg) alpha_du alpha_pr  ls
  40 1.8513084e+002 2.08e-003 6.90e+006  -1.5 1.43e-005  11.7 6.64e-001 1.00e+000h  1
  41 1.8513084e+002 2.07e-003 6.58e+006  -1.5 5.11e-006  12.1 1.00e+000 1.00e+000h  1
  42 1.8513083e+002 2.06e-003 6.29e+006  -1.5 1.46e-005  11.6 8.18e-001 1.00e+000h  1
  43 1.8513083e+002 2.05e-003 6.29e+006  -1.5 5.49e-006  12.1 1.00e+000 1.00e+000h  1
  44 1.8513083e+002 2.04e-003 6.15e+006  -1.5 1.61e-005  11.6 1.00e+000 1.00e+000h  1
  45 1.8513082e+002 2.03e-003 5.98e+006  -1.5 5.87e-006  12.0 1.00e+000 1.00e+000h  1
  46 1.8513081e+002 2.01e-003 7.19e+006  -1.5 8.34e-005  11.5 1.00e+000 1.00e+000h  1
  47 1.8513081e+002 2.00e-003 5.31e+006  -1.5 8.65e-006  12.0 1.00e+000 1.00e+000h  1
  48 1.8513081e+002 2.00e-003 4.93e+006  -1.5 2.04e-006  12.4 1.00e+000 1.00e+000s 22
  49 1.8513080e+002 1.99e-003 4.93e+006  -1.5 5.83e-006  11.9 1.00e+000 0.00e+000S 22
iter    objective    inf_pr   inf_du lg(mu)  ||d||  lg(rg) alpha_du alpha_pr  ls
  50 1.8513080e+002 1.99e-003 4.68e+006  -1.5 2.18e-006  12.3 1.00e+000 1.00e+000h  1
  51 1.8513080e+002 1.98e-003 4.74e+006  -1.5 9.28e-006  11.9 1.00e+000 1.00e+000h  1
  52 1.8513080e+002 1.97e-003 4.81e+006  -1.5 2.52e-006  12.3 1.00e+000 1.00e+000h  1
  53 1.8513079e+002 1.96e-003 5.50e+006  -1.5 1.67e-005  11.8 1.00e+000 1.00e+000h  1
  54 1.8513079e+002 1.96e-003 4.92e+006  -1.5 2.90e-006  12.2 1.00e+000 1.00e+000h  1
  55 1.8513078e+002 1.94e-003 5.01e+006  -1.5 3.43e-005  11.8 1.00e+000 1.00e+000h  1
  56 1.8513078e+002 1.94e-003 5.12e+006  -1.5 3.40e-006  12.2 1.00e+000 1.00e+000h  1
  57 1.8513077e+002 1.93e-003 1.01e+007  -1.5 7.94e-005  11.7 1.00e+000 1.00e+000h  1
  58 1.8513077e+002 1.92e-003 8.13e+006  -1.5 1.18e-005  12.1 1.00e+000 1.00e+000h  1
  59 1.8513076e+002 1.92e-003 6.59e+006  -1.5 1.84e-006  12.6 1.00e+000 1.00e+000h  1
iter    objective    inf_pr   inf_du lg(mu)  ||d||  lg(rg) alpha_du alpha_pr  ls
  60 1.8513076e+002 1.92e-003 6.99e+006  -1.5 6.27e-006  12.1 1.00e+000 1.00e+000h  1
  61 1.8513076e+002 1.91e-003 7.36e+006  -1.5 2.32e-006  12.5 1.00e+000 1.00e+000h  1
  62 1.8513075e+002 1.91e-003 7.63e+006  -1.5 9.10e-006  12.0 1.00e+000 1.00e+000h  1
  63 1.8513075e+002 1.91e-003 7.86e+006  -1.5 2.78e-006  12.5 1.00e+000 1.00e+000h  1
  64 1.8513075e+002 1.90e-003 7.98e+006  -1.5 1.55e-005  12.0 1.00e+000 1.00e+000h  1
  65 1.8513074e+002 1.90e-003 8.05e+006  -1.5 3.21e-006  12.4 1.00e+000 1.00e+000h  1
  66 1.8513074e+002 1.90e-003 1.04e+007  -1.5 2.50e-005  11.9 1.00e+000 1.00e+000h  1
  67 1.8513074e+002 1.89e-003 7.89e+006  -1.5 3.60e-006  12.3 1.00e+000 1.00e+000s 22
  68 1.8513073e+002 1.89e-003 8.02e+006  -1.5 1.05e-005  11.9 1.00e+000 0.00e+000S 22
  69 1.8513073e+002 1.89e-003 7.60e+006  -1.5 3.84e-006  12.3 1.00e+000 1.00e+000h  1
iter    objective    inf_pr   inf_du lg(mu)  ||d||  lg(rg) alpha_du alpha_pr  ls
  70 1.8513073e+002 1.89e-003 7.29e+006  -1.5 1.38e-006  12.7 1.00e+000 1.00e+000s 22
  71 1.8513072e+002 1.88e-003 6.93e+006  -1.5 4.89e-006  12.2 1.00e+000 1.00e+000s 22
  72r1.8513072e+002 1.88e-003 1.00e+003  -1.5 0.00e+000  12.7 0.00e+000 0.00e+000R  1
  73r1.8745454e+002 2.00e-003 6.03e+003  -1.0 1.96e+001    -  1.27e-001 2.08e-002f  1
  74r1.9153468e+002 2.42e-003 3.42e+003  -1.5 2.48e+000    -  3.64e-001 1.46e-001f  1
  75r1.9553897e+002 5.39e-003 1.75e+003  -2.4 1.57e+000    -  6.09e-001 4.32e-001f  1
  76r2.0042355e+002 1.66e-003 5.12e+002  -3.6 1.26e+000    -  5.61e-001 7.82e-001f  1
  77r1.9889237e+002 1.20e-003 5.15e+002  -3.4 9.37e-002  -2.0 3.67e-001 6.91e-001f  1
  78r1.9870303e+002 4.27e-004 1.31e+002  -3.9 1.82e-001    -  7.01e-001 6.46e-001f  1
  79r1.9858268e+002 1.80e-003 1.02e+003  -2.9 4.66e-003   1.1 3.81e-001 1.00e+000f  1
iter    objective    inf_pr   inf_du lg(mu)  ||d||  lg(rg) alpha_du alpha_pr  ls
  80r1.9849249e+002 9.72e-004 1.92e+002  -2.6 1.17e-002   0.7 1.00e+000 4.59e-001f  1
  81 1.9841014e+002 9.68e-004 2.30e+004  -1.3 3.03e+000    -  6.04e-001 4.33e-003f  1
  82 1.9810870e+002 1.31e-003 2.37e+004  -0.2 9.19e+000    -  5.61e-002 2.56e-002f  1
  83 1.8799616e+002 2.40e-002 1.85e+004  -0.2 8.35e+000    -  3.44e-001 2.60e-001f  1
  84 1.9260643e+002 1.87e-002 1.83e+004  -0.2 1.68e+001    -  2.91e-001 1.26e-001f  1
  85 1.9260642e+002 1.85e-002 3.46e+009  -0.2 2.14e-003  12.2 1.00e+000 1.00e+000h  1
  86 1.9260638e+002 1.77e-002 2.45e+009  -0.2 4.79e-003  11.7 1.00e+000 1.00e+000h  1
  87 1.9260619e+002 1.47e-002 3.55e+008  -0.2 2.39e-003  11.2 1.00e+000 1.00e+000h  1
  88 1.9260551e+002 8.94e-003 1.16e+008  -0.2 2.23e-003  10.8 1.00e+000 1.00e+000h  1
  89 1.9260366e+002 2.30e-002 4.28e+007  -0.2 2.22e-003  10.3 1.00e+000 1.00e+000h  1
iter    objective    inf_pr   inf_du lg(mu)  ||d||  lg(rg) alpha_du alpha_pr  ls
  90 1.9260014e+002 3.13e-002 1.73e+007  -0.2 2.69e-003   9.8 1.00e+000 1.00e+000h  1
  91 1.9259467e+002 2.43e-002 4.03e+006  -0.2 1.88e-003   9.3 1.00e+000 1.00e+000h  1
  92 1.9258387e+002 8.59e-003 3.00e+006  -0.2 4.19e-003   8.9 1.00e+000 1.00e+000h  1
  93 1.9255991e+002 1.35e-002 5.60e+006  -0.2 6.11e-003   8.4 1.00e+000 1.00e+000h  1
  94 1.9254017e+002 9.90e-003 7.52e+005  -0.2 8.82e-003   7.9 1.00e+000 6.53e-001H  1
  95 1.9253990e+002 9.88e-003 7.51e+005  -0.2 1.40e-002   7.4 3.53e-003 3.53e-003s 14
  96 1.9253982e+002 9.88e-003 7.51e+005  -0.2 2.87e-002   6.9 3.64e-004 3.64e-004s 14
  97 1.9244814e+002 8.95e-003 6.50e+005  -0.2 6.02e-002   6.5 1.35e-001 1.35e-001s 14
  98 1.9226297e+002 1.17e-002 5.55e+005  -0.2 9.17e-002   6.0 1.45e-001 1.45e-001s 14
  99 1.9226296e+002 1.17e-002 5.48e+005  -0.2 4.44e-004   9.1 2.00e-002 2.00e-002s 14
iter    objective    inf_pr   inf_du lg(mu)  ||d||  lg(rg) alpha_du alpha_pr  ls
 100 1.9226021e+002 1.17e-002 4.93e+005  -0.2 1.10e-003   8.7 1.00e+000 1.00e+000s 14
 101 1.9225814e+002 9.94e-003 5.53e+005  -0.2 3.80e-003   8.2 8.27e-001 8.27e-001s 14
 102r1.9225814e+002 9.94e-003 9.99e+002  -0.2 0.00e+000   8.6 0.00e+000 0.00e+000R  1
 103r1.9254056e+002 2.87e-003 8.73e+002  -6.2 2.56e+000    -  3.84e-001 7.00e-002f  1
 104r1.9409751e+002 1.91e-003 1.77e+003  -1.8 1.99e+000    -  1.61e-001 3.88e-001f  1
 105r1.9648837e+002 4.39e-003 1.27e+003  -1.0 1.89e-001   0.0 1.56e-001 3.14e-001f  1
 106r1.9669307e+002 3.51e-003 1.00e+003  -6.5 2.44e-001   1.3 2.94e-001 2.11e-001f  1
 107r1.9759334e+002 1.20e-003 4.10e+002  -1.7 1.58e-001   0.9 2.62e-001 6.68e-001f  1
 108 1.9761352e+002 4.19e-003 7.38e+003  -0.2 6.63e+000    -  2.50e-001 1.45e-003f  1
 109 2.0109968e+002 1.12e-002 5.57e+003  -0.2 3.41e+000    -  9.18e-002 1.30e-001f  1
iter    objective    inf_pr   inf_du lg(mu)  ||d||  lg(rg) alpha_du alpha_pr  ls
 110 1.9907735e+002 1.02e-001 1.22e+004  -0.2 5.18e+000    -  1.55e-001 7.82e-001f  1
 111 1.9907107e+002 2.93e-002 1.16e+006  -0.2 1.22e-002   8.1 9.97e-001 7.15e-001h  1
 112 1.9907095e+002 2.92e-002 1.15e+006  -0.2 1.32e-002   7.6 1.00e+000 5.99e-003h  1
 113 1.9904162e+002 7.77e-003 4.58e+005  -0.2 1.82e-002   7.2 1.00e+000 7.27e-001h  1
 114 1.9903765e+002 7.42e-003 4.38e+005  -0.2 9.01e-003   6.7 1.00e+000 4.43e-002h  1
 115 1.9883504e+002 4.34e-003 5.79e+004  -0.2 1.92e-002   6.2 1.00e+000 1.00e+000h  1
 116 1.9860952e+002 1.40e-003 1.95e+004  -0.2 2.13e-002   5.7 5.57e-001 7.06e-001h  1
 117 1.9881334e+002 8.43e-004 3.85e+004  -0.2 2.53e-002   5.3 6.69e-002 1.00e+000H  1
 118 1.9896436e+002 8.51e-004 2.86e+004  -0.2 8.21e-002   4.8 5.46e-001 2.62e-001H  1
 119 1.9916919e+002 3.75e-004 9.43e+004  -0.2 1.66e-001   4.3 7.63e-001 1.00e+000H  1
iter    objective    inf_pr   inf_du lg(mu)  ||d||  lg(rg) alpha_du alpha_pr  ls
 120 1.9916919e+002 3.75e-004 9.26e+004  -0.2 5.24e-005   9.2 1.00e+000 1.00e+000h  1
 121 1.9916918e+002 3.74e-004 1.92e+004  -0.2 3.27e-005   8.8 1.00e+000 1.00e+000h  1
 122 1.9916915e+002 3.75e-004 5.52e+004  -0.2 1.22e-004   8.3 1.00e+000 1.00e+000h  1
 123 1.9916899e+002 3.82e-004 7.71e+003  -0.2 1.18e-004   7.8 1.00e+000 1.00e+000h  1
 124 1.9916836e+002 3.89e-004 8.53e+003  -0.2 3.92e-004   7.3 1.00e+000 1.00e+000h  1
 125 1.9916717e+002 3.85e-004 7.93e+003  -0.2 1.01e-003   6.9 1.00e+000 5.00e-001h  2
 126 1.9915937e+002 3.55e-004 5.02e+004  -0.2 1.84e-003   6.4 1.00e+000 1.00e+000f  1
 127 1.9912962e+002 3.08e-004 9.16e+004  -0.2 4.08e-003   5.9 1.00e+000 1.00e+000H  1
 128 1.9905079e+002 2.30e-004 1.14e+004  -0.2 1.15e-002   5.4 1.00e+000 1.00e+000H  1
 129 1.9880889e+002 3.67e-004 3.00e+003  -0.2 2.83e-002   5.0 1.00e+000 1.00e+000H  1
iter    objective    inf_pr   inf_du lg(mu)  ||d||  lg(rg) alpha_du alpha_pr  ls
 130 1.9801195e+002 2.99e-003 5.49e+003  -0.2 4.80e-002   4.5 9.77e-001 9.77e-001s 22
 131 1.9776970e+002 2.08e-003 4.45e+003  -0.2 9.30e-002   4.0 2.71e-001 2.71e-001s 22
 132r1.9776970e+002 2.08e-003 9.99e+002  -0.2 0.00e+000   3.5 0.00e+000 0.00e+000R  1
 133r2.0940130e+002 4.15e-003 1.59e+003  -0.2 7.32e+000    -  2.56e-001 3.90e-001f  1
 134r2.0885040e+002 3.63e-003 1.34e+003  -2.1 4.91e+000    -  5.22e-001 2.99e-001f  1
 135r2.0885041e+002 3.53e-003 9.58e+004   0.3 3.67e-003   8.0 1.00e+000 6.16e-002f  1
 136r2.0885045e+002 3.06e-003 2.72e+005   0.6 3.42e-003   8.4 1.00e+000 2.57e-001f  1
 137r2.0885045e+002 3.05e-003 5.60e+006   0.8 2.49e-003   9.8 1.00e+000 1.19e-002h  1
 138r2.0885046e+002 2.95e-003 2.09e+007   0.7 2.46e-003  10.2 1.00e+000 7.18e-002h  1
 139r2.0885047e+002 2.90e-003 5.98e+007   1.0 2.27e-003  10.6 1.00e+000 8.89e-002h  1
iter    objective    inf_pr   inf_du lg(mu)  ||d||  lg(rg) alpha_du alpha_pr  ls
 140r2.0885048e+002 2.87e-003 1.42e+008   1.2 2.06e-003  11.0 1.00e+000 9.75e-002h  1
 141r2.0885049e+002 2.85e-003 3.67e+008   1.0 1.85e-003  11.5 1.00e+000 9.29e-002h  1
 142r2.0885050e+002 2.83e-003 8.67e+008   1.5 1.67e-003  11.9 1.00e+000 1.17e-001h  1
 143r2.0885050e+002 2.83e-003 1.90e+010   1.3 1.47e-003  13.2 1.00e+000 1.56e-002h  1
 144r2.0885051e+002 2.82e-003 4.71e+010   0.7 1.45e-003  13.6 1.00e+000 7.76e-002h  1
 145r2.0885051e+002 2.82e-003 1.17e+011   0.5 1.33e-003  14.1 1.00e+000 4.60e-002h  1
 146r2.0885052e+002 2.81e-003 2.85e+011   0.3 1.27e-003  14.5 1.00e+000 8.66e-002h  1
 147r2.0885052e+002 2.81e-003 7.03e+011   0.1 1.15e-003  14.9 1.00e+000 5.92e-002h  1
 148r2.0885052e+002 2.81e-003 1.81e+012   2.5 1.08e-003  15.3 1.00e+000 4.13e-002h  1
 149r2.0885053e+002 2.81e-003 4.59e+012   2.2 1.04e-003  15.8 1.00e+000 5.87e-002h  1
iter    objective    inf_pr   inf_du lg(mu)  ||d||  lg(rg) alpha_du alpha_pr  ls
 150r2.0885053e+002 2.81e-003 1.14e+013   1.4 9.77e-004  16.2 1.00e+000 6.76e-002h  1
 151r2.0885053e+002 2.81e-003 2.87e+013   0.9 9.09e-004  16.6 1.00e+000 4.76e-002h  1
 152r2.0885054e+002 2.82e-003 7.40e+013   0.7 8.65e-004  17.0 1.00e+000 4.28e-002h  1
 153r2.0885054e+002 2.83e-003 1.72e+014   0.7 8.28e-004  17.5 1.00e+000 1.31e-001h  1
 154r2.0885054e+002 2.83e-003 4.37e+014   2.5 7.17e-004  17.9 1.00e+000 5.43e-003h  1
 155r2.0885054e+002 2.83e-003 1.16e+015   1.9 7.13e-004  18.3 1.00e+000 5.13e-002h  1
 156r2.0885054e+002 2.84e-003 3.03e+015   2.8 6.76e-004  18.8 1.00e+000 1.54e-002h  1
 157r2.0885055e+002 2.84e-003 7.46e+015   2.2 6.66e-004  19.2 1.00e+000 8.81e-002h  1
 158r2.0885055e+002 2.84e-003 1.93e+016   2.8 6.06e-004  19.6 1.00e+000 3.62e-003h  1
 159r2.0885055e+002 2.84e-003 1.13e+015   1.0 1.13e-005  20.0 1.00e+000 1.00e+000h  1
iter    objective    inf_pr   inf_du lg(mu)  ||d||  lg(rg) alpha_du alpha_pr  ls
 160r2.0885055e+002 2.85e-003 1.48e+016   0.7 5.92e-004  19.5 1.00e+000 4.75e-002h  1
 161r2.0885055e+002 2.85e-003 3.70e+016   0.7 5.64e-004  19.9 1.00e+000 7.82e-002h  1
WARNING: Problem in step computation; switching to emergency mode.
 162r2.0885055e+002 2.85e-003 6.04e+015   0.7 5.64e-004  20.0 0.00e+000 0.00e+000R  1
WARNING: Problem in step computation; switching to emergency mode.
Restoration phase is called at point that is almost feasible,
  with constraint violation 3.996803e-015. Abort.
Restoration phase in the restoration phase failed.

Number of Iterations....: 162

                                   (scaled)                 (unscaled)
Objective...............:  6.9616850403762228e+001   2.0885055121201421e+002
Dual infeasibility......:  6.0409294828650300e+015   1.8122788448658220e+016
Constraint violation....:  2.8537570199204916e-003   2.8537570199204916e-003
Complementarity.........:  6.7026196460671557e+000   2.0107858938271512e+001
Overall NLP error.......:  6.1677990880822734e+004   1.8122788448658220e+016


Number of objective function evaluations             = 294
Number of objective gradient evaluations             = 123
Number of equality constraint evaluations            = 294
Number of inequality constraint evaluations          = 294
Number of equality constraint Jacobian evaluations   = 166
Number of inequality constraint Jacobian evaluations = 166
Number of Lagrangian Hessian evaluations             = 163
Total CPU secs in IPOPT (w/o function evaluations)   =     22.566
Total CPU secs in NLP function evaluations           =    114.062

EXIT: Restoration Failed!
